1 5
1 7
1 8
1 12
1 14
1 17
2 3
2 6
2 7
2 15
2 16
2 19
3 4
3 9
3 10
3 12
3 14
3 16
4 6
4 8
4 9
4 10
4 15
4 18
5 6
5 7
5 8
5 9
5 10
5 12
5 14
5 15
5 17
5 19
6 8
6 10
6 15
6 16
6 18
6 19
7 9
7 10
7 12
7 16
7 17
7 19
8 10
8 11
8 13
8 14
8 18
9 11
9 14
9 15
9 16
10 12
10 16
10 17
10 19
11 13
11 19
12 13
12 14
12 15
12 16
13 14
13 15
13 18
15 16
15 17
15 19
16 17
16 18
17 18
17 19
18 19
